(set-option :produce-models true)
(set-logic QF_UF)
(declare-fun p96() Bool)
(declare-fun p83() Bool)
(declare-fun p32() Bool)
(declare-fun p13() Bool)
(declare-fun p18() Bool)
(declare-fun p50() Bool)
(declare-fun p88() Bool)
(declare-fun p58() Bool)
(declare-fun p56() Bool)
(declare-fun p82() Bool)
(declare-fun p65() Bool)
(declare-fun p8() Bool)
(declare-fun p16() Bool)
(declare-fun p99() Bool)
(declare-fun p44() Bool)
(declare-fun p85() Bool)
(declare-fun p89() Bool)
(declare-fun p26() Bool)
(declare-fun p9() Bool)
(declare-fun p66() Bool)
(declare-fun p95() Bool)
(declare-fun p40() Bool)
(declare-fun p23() Bool)
(declare-fun p17() Bool)
(declare-fun p87() Bool)
(declare-fun p34() Bool)
(declare-fun p71() Bool)
(declare-fun p76() Bool)
(declare-fun p63() Bool)
(declare-fun p79() Bool)
(declare-fun p24() Bool)
(declare-fun p33() Bool)
(declare-fun p94() Bool)
(declare-fun p57() Bool)
(declare-fun p69() Bool)
(declare-fun p4() Bool)
(declare-fun p91() Bool)
(declare-fun p60() Bool)
(declare-fun p30() Bool)
(declare-fun p49() Bool)
(declare-fun p72() Bool)
(declare-fun p20() Bool)
(declare-fun p97() Bool)
(declare-fun p12() Bool)
(declare-fun p29() Bool)
(declare-fun p2() Bool)
(declare-fun p45() Bool)
(declare-fun p51() Bool)
(declare-fun p64() Bool)
(declare-fun p70() Bool)
(declare-fun p0() Bool)
(declare-fun p25() Bool)
(declare-fun p31() Bool)
(declare-fun p77() Bool)
(declare-fun p39() Bool)
(declare-fun p35() Bool)
(declare-fun p53() Bool)
(declare-fun p61() Bool)
(declare-fun p3() Bool)
(declare-fun p14() Bool)
(declare-fun p93() Bool)
(declare-fun p22() Bool)
(declare-fun p5() Bool)
(declare-fun p28() Bool)
(declare-fun p74() Bool)
(declare-fun p92() Bool)
(declare-fun p90() Bool)
(declare-fun p48() Bool)
(declare-fun p54() Bool)
(declare-fun p41() Bool)
(declare-fun p86() Bool)
(declare-fun p15() Bool)
(declare-fun p73() Bool)
(declare-fun p10() Bool)
(declare-fun p38() Bool)
(declare-fun p67() Bool)
(declare-fun p36() Bool)
(declare-fun p42() Bool)
(declare-fun p52() Bool)
(declare-fun p7() Bool)
(declare-fun p98() Bool)
(declare-fun p68() Bool)
(declare-fun p59() Bool)
(declare-fun p21() Bool)
(declare-fun p62() Bool)
(declare-fun p43() Bool)
(declare-fun p75() Bool)
(declare-fun p37() Bool)
(declare-fun p78() Bool)
(declare-fun p1() Bool)
(declare-fun p84() Bool)
(declare-fun p19() Bool)
(declare-fun p55() Bool)
(declare-fun p6() Bool)
(declare-fun p11() Bool)
(declare-fun p27() Bool)
(declare-fun p46() Bool)
(declare-fun p47() Bool)
(declare-fun p80() Bool)
(declare-fun p81() Bool)
(assert
(and (or (not p96) p83 p32) (or (not p13) p18 (not p50)) (or (not p83) p88 (not p58)) (or p56 p82 p65) (or (not p8) (not p16) p99) (or p44 (not p85) (not p56)) (or (not p89) p26 (not p9)) (or (not p66) p95 (not p40)) (or (not p23) (not p17) (not p96)) (or (not p87) p34 (not p40)) (or (not p71) (not p17) (not p34)) (or (not p76) p63 (not p79)) (or p24 (not p33) (not p94)) (or p57 (not p69) p24) (or (not p33) p79 (not p69)) (or (not p4) p91 p60) (or (not p56) (not p30) p49) (or (not p72) (not p26) (not p49)) (or p24 (not p20) (not p97)) (or p49 p12 (not p29)) (or (not p95) (not p34) p2) (or p66 p45 (not p51)) (or (not p64) p76 p82) (or p70 (not p64) (not p0)) (or p25 p30 (not p51)) (or (not p87) (not p31) (not p13)) (or (not p18) p77 (not p0)) (or p39 (not p35) p53) (or (not p61) p30 (not p3)) (or (not p33) (not p88) p64) (or p39 p51 p14) (or (not p76) p9 p93) (or p39 (not p22) p5) (or (not p28) (not p60) (not p74)) (or (not p92) p26 (not p79)) (or (not p90) (not p39) (not p17)) (or p53 p71 p88) (or (not p48) (not p66) (not p54)) (or (not p74) (not p23) p41) (or p86 (not p15) (not p28)) (or p2 p58 (not p20)) (or p73 (not p30) p87) (or (not p58) (not p88) (not p3)) (or p8 p26 p31) (or (not p10) p4 (not p16)) (or (not p77) (not p94) p86) (or p38 (not p49) (not p13)) (or p0 (not p33) p15) (or (not p87) (not p32) p67) (or p20 p28 (not p64)) (or p87 p3 p79) (or (not p36) (not p92) p42) (or (not p26) p25 (not p17)) (or (not p13) p0 p53) (or (not p67) p39 p52) (or (not p7) p79 (not p98)) (or p68 p2 p15) (or (not p28) (not p59) (not p3)) (or (not p24) p21 p29) (or (not p62) p74 (not p16)) (or (not p68) p43 p75) (or p65 p37 p23) (or (not p78) (not p96) p42) (or (not p74) (not p0) p76) (or (not p57) (not p79) p26) (or (not p25) p72 p23) (or (not p1) p66 p29) (or (not p85) p68 (not p2)) (or (not p44) (not p97) p52) (or p28 p87 (not p18)) (or (not p87) p17 (not p78)) (or (not p94) p4 (not p16)) (or (not p7) (not p41) (not p95)) (or p32 (not p98) p12) (or (not p13) (not p64) (not p59)) (or (not p84) (not p67) (not p19)) (or p62 (not p7) (not p29)) (or (not p0) (not p98) (not p57)) (or p62 p96 (not p64)) (or (not p91) (not p63) (not p9)) (or p24 p31 p99) (or p48 (not p33) p57) (or p93 (not p18) (not p97)) (or p55 p37 (not p38)) (or (not p34) p88 p61) (or (not p85) p96 p2) (or (not p64) (not p66) p19) (or p49 (not p9) (not p40)) (or (not p67) (not p3) (not p7)) (or (not p84) (not p6) p3) (or (not p66) p55 p28) (or p87 p85 p55) (or (not p32) (not p12) p12) (or p26 (not p75) p1) (or p74 (not p67) p39) (or p60 (not p97) (not p85)) (or (not p99) p23 p75) (or p95 p65 (not p92)) (or (not p67) (not p99) p16) (or p30 p72 p11) (or (not p55) (not p61) (not p0)) (or p3 p10 p71) (or (not p87) p87 p31) (or p77 (not p31) (not p70)) (or (not p27) p43 p76) (or p23 (not p79) p29) (or (not p3) p84 (not p56)) (or p77 p23 (not p65)) (or (not p96) (not p68) (not p60)) (or p72 p17 (not p25)) (or (not p61) p70 p18) (or (not p19) (not p46) p73) (or (not p22) p43 p64) (or (not p16) (not p14) (not p72)) (or (not p69) p25 p76) (or p0 p51 p43) (or (not p39) p47 p72) (or (not p46) (not p62) p46) (or (not p39) (not p20) (not p77)) (or p7 (not p58) p5) (or p95 (not p55) (not p9)) (or p6 (not p76) (not p95)) (or p47 (not p40) p97) (or (not p23) (not p73) p19) (or (not p55) p55 p37) (or (not p98) p77 p14) (or (not p19) p44 p14) (or (not p85) p0 p33) (or p76 (not p26) p41) (or p15 (not p61) p88) (or p77 (not p6) p96) (or (not p28) (not p20) p59) (or (not p45) p79 p96) (or (not p49) p6 (not p6)) (or (not p16) (not p63) p60) (or p94 (not p2) (not p13)) (or (not p46) p93 p45) (or p55 p73 (not p92)) (or p52 p73 p0) (or p42 p26 p71) (or (not p28) (not p74) p38) (or (not p91) p46 p13) (or (not p11) (not p0) p8) (or p49 p88 (not p60)) (or (not p1) p27 (not p92)) (or p63 (not p91) (not p18)) (or p68 p75 (not p43)) (or p38 p59 (not p54)) (or p49 (not p63) p0) (or p8 p70 (not p19)) (or (not p92) (not p25) p1) (or (not p67) p99 (not p33)) (or (not p23) (not p4) p68) (or (not p75) p29 (not p5)) (or (not p44) p72 (not p64)) (or (not p60) p97 (not p13)) (or p35 (not p43) p54) (or p14 p72 (not p29)) (or p16 (not p35) p58) (or p3 p69 (not p95)) (or (not p97) (not p7) (not p50)) (or (not p68) (not p6) (not p49)) (or p83 p7 (not p17)) (or (not p27) p7 (not p88)) (or p46 p31 (not p55)) (or (not p31) p28 (not p74)) (or p68 (not p92) p26) (or p34 p23 (not p38)) (or p19 (not p38) p53) (or p80 p84 (not p87)) (or p89 p70 p8) (or (not p96) (not p16) p47) (or (not p14) (not p93) (not p18)) (or (not p0) (not p9) p58) (or (not p7) p55 p61) (or (not p33) (not p47) p80) (or p18 (not p57) (not p50)) (or p86 p52 (not p65)) (or p97 p81 p68) (or (not p78) p21 p30) (or p60 p67 p45) (or p63 (not p30) p63) (or (not p26) p57 p31) (or p79 (not p83) p89) (or (not p16) p8 p75) (or p87 p41 p80) (or (not p75) (not p26) (not p8)) (or (not p37) (not p10) (not p31)) (or (not p15) (not p29) (not p73)) (or (not p51) (not p35) (not p74)) (or p35 p76 p39) (or p4 (not p28) p84) (or p57 p92 (not p51)) (or (not p92) p74 p55) (or (not p49) p9 (not p42)) (or (not p40) p3 (not p68)) (or (not p78) p10 (not p81)) (or p39 p34 (not p29)) (or (not p84) (not p86) p16) (or p98 p40 p52) (or (not p23) p20 (not p95)) (or (not p9) (not p39) (not p1)) (or p61 (not p71) p40) (or (not p18) (not p48) p62) (or (not p63) (not p58) (not p9)) (or p7 p67 (not p23)) (or (not p74) p9 p26) (or (not p39) p42 (not p36)) (or (not p57) (not p51) (not p94)) (or (not p68) (not p93) (not p63)) (or p24 (not p62) (not p9)) (or p78 p85 p57) (or p44 p63 p32) (or (not p0) (not p97) (not p2)) (or p71 (not p20) p19) (or (not p4) (not p66) p5) (or p14 (not p3) (not p24)) (or p97 (not p16) (not p80)) (or (not p3) (not p50) (not p79)) (or (not p4) p28 (not p26)) (or (not p22) p91 p99) (or (not p91) p98 p59) (or (not p94) (not p11) p25) (or (not p26) p46 p15) (or (not p49) p59 p77) (or (not p32) p91 (not p92)) (or (not p40) (not p80) (not p72)) (or (not p58) p53 p84) (or p9 (not p19) (not p3)) (or p63 p95 (not p85)) (or p47 (not p33) (not p62)) (or (not p76) (not p15) p32) (or (not p21) p40 (not p29)) (or (not p20) p80 (not p10)) (or p92 p18 (not p48)) (or p28 (not p54) p8) (or (not p85) (not p56) (not p26)) (or (not p1) (not p55) (not p34)) (or (not p72) (not p44) (not p25)) (or p19 (not p9) p41) (or p13 p14 p72) (or (not p74) p50 p63) (or p69 (not p47) p48) (or p33 p30 p34) (or (not p1) p36 (not p52)) (or (not p2) p4 (not p25)) (or p45 (not p57) p90) (or (not p86) (not p72) (not p23)) (or (not p80) p11 p86) (or p34 p13 (not p74)) (or p28 (not p81) (not p47)) (or (not p9) (not p75) p30) (or (not p18) (not p64) p78) (or (not p72) (not p10) p14) (or p98 p0 (not p1)) (or p19 (not p1) p44) (or (not p92) p37 p22) (or (not p55) (not p42) p33) (or (not p99) (not p5) (not p31)) (or p70 p92 p8) (or p84 (not p66) (not p33)) (or (not p34) p84 p42) (or p71 p5 p0) (or (not p41) (not p91) (not p17)) (or p74 p86 (not p66)) (or (not p90) (not p73) p47) (or (not p42) p25 (not p75)) (or (not p63) (not p96) p49) (or (not p89) p51 p94) (or p96 (not p49) (not p0)) (or (not p1) p55 p88) (or p40 p20 p74) (or p51 (not p14) (not p40)) (or (not p68) (not p82) (not p13)) (or (not p33) (not p67) (not p41)) (or (not p44) (not p25) p40) (or p51 (not p17) p46) (or (not p36) p61 (not p48)) (or p77 (not p70) p79) (or p42 p1 p5) (or (not p14) p50 p69) (or (not p90) p70 p0) (or p86 (not p47) (not p21)) (or p20 (not p66) (not p11)) (or p26 (not p48) p74) (or (not p45) p38 p91) (or (not p46) p75 p74) (or (not p96) (not p3) p28) (or (not p35) p1 (not p52)) (or (not p83) (not p39) p47) (or p6 p16 (not p30)) (or (not p27) (not p34) p60) (or p81 p67 (not p42)) (or (not p31) p4 (not p17)) (or p26 p70 p35) (or p89 (not p77) (not p11)) (or p77 p54 p26) (or p6 p92 p18) (or (not p28) (not p16) (not p82)) (or p86 (not p95) p1) (or (not p39) (not p15) p21) (or p90 p50 p64) (or p17 (not p93) p18) (or p4 (not p0) p44) (or p46 p82 (not p82)) (or (not p45) p27 p69) (or (not p39) (not p79) p58) (or (not p87) (not p9) (not p77)) (or (not p95) (not p54) p53) (or p76 p56 p51) (or (not p10) (not p98) (not p54)) (or (not p18) (not p93) (not p87)) (or p61 p21 p1) (or (not p60) p89 (not p16)) (or p6 (not p15) (not p88)) (or p58 (not p66) (not p37)) (or p13 p32 (not p94)) (or (not p38) p11 p56) (or (not p0) (not p60) p20) (or (not p13) (not p91) (not p27)) (or (not p54) p41 (not p61)) (or p25 (not p82) p37) (or (not p22) (not p52) (not p23)) (or (not p45) (not p84) (not p24)) (or p9 (not p79) p63) (or p69 p48 p90) (or p77 p92 (not p30)) (or p56 p79 p19) (or p95 p92 (not p65)) (or (not p70) (not p63) (not p29)) (or p89 (not p68) (not p45)) (or p58 p82 (not p48)) (or p60 (not p61) (not p66)) (or p89 (not p17) (not p88)) (or (not p75) p60 (not p72)) (or (not p77) p91 p26) (or p3 p64 p82) (or p27 p3 p67) (or p19 (not p6) (not p73)) (or (not p92) p76 p91) (or p3 (not p11) p6) (or (not p94) (not p15) p85) (or p50 p21 p96) (or (not p70) p76 p72) (or p21 (not p84) (not p2)) (or (not p29) p44 (not p44)) (or (not p3) p18 (not p10)) (or p86 (not p34) (not p20)) (or p77 (not p70) (not p39)) (or p24 p52 (not p7)) (or p54 (not p39) (not p76)) (or p42 p73 p79) (or p48 (not p35) (not p31)) (or p32 p31 (not p11)) (or (not p9) p62 (not p84)) (or p81 (not p34) (not p64)) (or (not p48) p85 p91) (or (not p97) p99 p57) (or (not p28) p67 (not p97)) (or p62 p63 (not p44)) (or (not p71) p99 p95) (or (not p63) p32 (not p35)) (or p61 (not p72) (not p44)) (or p62 p63 p34) (or p66 p68 p37) (or (not p35) p67 p57) (or p52 (not p3) (not p88)) (or (not p73) p83 p52) (or p93 p6 (not p20)) (or (not p19) p44 p12) (or (not p33) p81 p15) (or (not p97) (not p15) p60) (or p32 (not p53) p97) (or (not p52) (not p29) (not p11)) (or p59 p64 p40) (or (not p20) p15 (not p56)) (or (not p41) p39 p99) (or p40 p57 (not p30)) (or p14 (not p63) p57) (or (not p49) (not p43) (not p75)) (or p1 (not p64) (not p12)) (or p17 p57 p12) (or (not p37) (not p49) (not p17)) (or p43 p18 (not p98)) (or (not p78) (not p24) p76) (or p13 p70 (not p65)) (or (not p1) (not p65) (not p50)) (or p66 (not p15) (not p32)) (or p74 (not p37) (not p23)) (or p76 (not p53) p1) (or (not p26) p15 (not p45)) (or (not p91) (not p51) p19) (or p38 (not p8) p52) (or (not p12) (not p65) p60) (or (not p57) p29 p35) (or (not p74) p47 p98) (or (not p90) (not p52) (not p47)) (or p63 (not p51) p38) (or p96 p85 (not p24)) (or p70 (not p83) p39) (or (not p57) (not p29) (not p64)) (or p56 p36 (not p79)) (or p6 (not p36) p8) (or p38 p85 (not p66)) (or (not p74) p7 p69) (or p27 p95 p56) (or (not p46) (not p25) p26) (or p63 p61 p76) (or p93 (not p25) (not p66)) (or (not p23) p33 p57) (or p61 p98 (not p90)) (or p70 p29 p44) (or p85 p34 (not p66)) (or p23 p11 p77) (or (not p69) (not p64) p23) (or p52 (not p64) (not p68)) (or (not p35) (not p0) p94) (or (not p12) (not p79) (not p63)) (or p98 p61 (not p81)) (or p89 p99 p7))
)
(check-sat)
(get-model)
